62
125
87	4
86	4
85	1
84	4
83	3
82	3
81	3
80	1
79	1
78	4
77	3
76	3
75	5
73	8
72	2
71	2
70	3
69	7
68	3
67	1
66	3
65	2
64	3
63	4
62	4
61	4
60	2
59	2
58	3
57	3
56	3
55	3
54	2
53	2
52	5
51	3
50	6
49	3
48	2
47	1
46	5
45	1
44	2
43	4
42	4
41	4
40	10
39	3
38	4
37	5
36	6
35	4
34	1
33	5
32	1
31	2
30	3
29	5
28	2
27	1
26	1
25	2
